p tw 35 70
0 1
0 4
0 2
0 20
0 11
0 3
0 5
1 2
1 10
1 5
1 3
1 4
1 11
2 5
2 4
2 18
2 3
2 11
3 4
3 11
3 5
3 24
4 5
4 27
4 11
5 11
5 8
6 7
6 8
6 9
7 8
7 9
8 9
10 29
10 30
10 31
11 13
12 13
12 14
12 15
13 14
13 15
14 15
16 17
16 18
16 19
17 18
17 19
18 19
20 32
20 33
20 34
21 22
21 23
21 24
22 23
22 24
23 24
25 26
25 27
25 28
26 27
26 28
27 28
29 30
29 31
30 31
32 33
32 34
33 34
